DIMACS_lns/graph-1000-144.col
p edge 1000 1808
e 1 99
e 1 757
e 1 123
e 1 971
e 1 551
e 1 349
e 3 891
e 3 292
e 3 495
e 3 831
e 3 538
e 4 683
e 4 866
e 4 832
e 5 516
e 5 396
e 5 742
e 5 436
e 6 625
e 6 900
e 6 234
e 6 218
e 7 565
e 7 341
e 7 267
e 7 55
e 7 751
e 8 487
e 8 704
e 8 232
e 8 274
e 8 470
e 8 506
e 9 517
e 9 785
e 9 401
e 9 609
e 10 855
e 10 955
e 10 701
e 10 711
e 12 240
e 12 179
e 12 223
e 12 228
e 12 840
e 12 79
e 13 975
e 13 678
e 13 441
e 13 893
e 14 907
e 14 574
e 14 905
e 14 932
e 14 510
e 14 787
e 14 232
e 15 349
e 15 677
e 15 496
e 15 570
e 15 693
e 15 586
e 16 902
e 16 929
e 16 33
e 16 196
e 16 484
e 16 623
e 17 288
e 17 564
e 17 936
e 17 881
e 17 343
e 17 105
e 17 83
e 18 530
e 18 768
e 18 756
e 20 723
e 20 985
e 20 726
e 20 137
e 23 765
e 23 407
e 23 887
e 23 870
e 23 884
e 24 752
e 24 460
e 24 46
e 24 791
e 24 836
e 24 557
e 24 944
e 24 238
e 24 432
e 25 464
e 25 130
e 25 90
e 25 58
e 25 722
e 26 520
e 26 493
e 26 720
e 26 363
e 26 344
e 27 373
e 27 357
e 27 744
e 27 606
e 28 627
e 28 99
e 28 147
e 28 149
e 29 623
e 29 505
e 29 746
e 29 886
e 29 222
e 29 928
e 29 349
e 29 313
e 30 811
e 30 852
e 30 751
e 30 951
e 31 571
e 31 888
e 31 323
e 31 880
e 31 251
e 31 985
e 32 132
e 32 826
e 32 908
e 33 842
e 33 221
e 33 879
e 33 532
e 33 726
e 33 55
e 35 798
e 35 225
e 35 853
e 37 336
e 37 767
e 37 481
e 37 946
e 37 426
e 37 185
e 37 78
e 37 340
e 39 933
e 39 458
e 39 710
e 39 796
e 39 301
e 39 584
e 39 440
e 39 308
e 40 648
e 40 809
e 40 772
e 40 491
e 41 559
e 41 365
e 41 82
e 42 696
e 42 964
e 42 85
e 44 657
e 44 658
e 44 938
e 44 301
e 45 172
e 45 727
e 45 742
e 45 551
e 45 873
e 46 261
e 46 157
e 46 748
e 46 709
e 47 891
e 47 62
e 47 317
e 47 272
e 48 667
e 48 601
e 48 207
e 49 359
e 49 510
e 49 570
e 49 608
e 51 337
e 51 128
e 51 731
e 51 161
e 51 567
e 53 748
e 53 818
e 53 154
e 53 867
e 54 847
e 54 506
e 54 272
e 54 960
e 54 952
e 54 692
e 55 674
e 55 686
e 55 887
e 56 76
e 56 934
e 56 606
e 56 805
e 56 999
e 57 456
e 57 597
e 57 595
e 58 785
e 58 958
e 59 490
e 59 566
e 59 514
e 59 413
e 60 644
e 60 779
e 60 720
e 61 392
e 61 253
e 61 115
e 62 247
e 62 510
e 62 366
e 62 888
e 66 239
e 66 455
e 66 820
e 66 506
e 66 67
e 66 468
e 66 426
e 66 321
e 67 932
e 67 124
e 67 558
e 68 96
e 68 720
e 68 693
e 69 438
e 69 717
e 69 937
e 69 632
e 69 72
e 70 102
e 70 877
e 70 892
e 70 760
e 70 459
e 70 108
e 71 460
e 71 462
e 71 248
e 71 824
e 72 698
e 72 577
e 72 803
e 73 877
e 73 527
e 73 497
e 73 605
e 74 641
e 74 745
e 74 103
e 74 686
e 75 881
e 75 520
e 75 627
e 76 235
e 76 319
e 76 240
e 76 789
e 76 248
e 76 170
e 76 166
e 77 277
e 77 624
e 77 532
e 77 81
e 77 451
e 78 473
e 78 335
e 78 877
e 78 924
e 78 978
e 79 289
e 79 857
e 79 449
e 79 486
e 79 225
e 80 618
e 80 258
e 80 733
e 80 675
e 81 559
e 81 683
e 81 990
e 82 691
e 82 118
e 83 271
e 83 927
e 83 399
e 84 709
e 84 630
e 84 703
e 85 320
e 85 558
e 86 299
e 86 915
e 86 590
e 86 542
e 87 658
e 87 674
e 87 800
e 87 866
e 89 999
e 89 109
e 89 101
e 89 236
e 90 487
e 90 357
e 90 818
e 93 94
e 93 412
e 93 776
e 93 297
e 93 460
e 93 210
e 93 97
e 94 642
e 94 595
e 94 495
e 94 467
e 96 223
e 96 908
e 96 729
e 96 475
e 96 613
e 97 595
e 97 655
e 97 228
e 98 151
e 98 128
e 98 577
e 98 171
e 99 499
e 99 605
e 99 376
e 99 202
e 99 789
e 100 353
e 100 657
e 100 267
e 101 960
e 101 592
e 101 231
e 101 680
e 102 744
e 102 747
e 102 544
e 102 132
e 103 924
e 103 614
e 103 206
e 103 319
e 103 423
e 103 470
e 104 843
e 104 571
e 104 463
e 105 848
e 105 435
e 105 322
e 105 460
e 105 948
e 105 944
e 108 435
e 108 614
e 108 835
e 108 466
e 108 750
e 109 586
e 109 886
e 109 980
e 111 634
e 111 133
e 111 543
e 112 130
e 112 902
e 112 578
e 112 393
e 112 293
e 112 259
e 115 316
e 115 293
e 115 585
e 116 366
e 116 727
e 116 341
e 116 763
e 118 945
e 118 687
e 119 944
e 119 373
e 119 539
e 119 554
e 119 235
e 121 994
e 121 327
e 121 300
e 121 862
e 122 501
e 122 585
e 122 644
e 123 567
e 123 621
e 123 922
e 124 743
e 124 780
e 125 570
e 125 485
e 125 267
e 125 402
e 126 388
e 126 229
e 126 905
e 126 752
e 127 817
e 127 965
e 127 754
e 128 185
e 128 339
e 128 477
e 129 329
e 129 837
e 129 340
e 130 308
e 130 413
e 132 726
e 132 464
e 132 780
e 132 450
e 132 223
e 132 656
e 133 625
e 133 989
e 134 936
e 134 849
e 134 678
e 137 170
e 137 790
e 137 319
e 137 768
e 138 929
e 138 331
e 138 899
e 139 353
e 139 349
e 139 921
e 139 995
e 139 663
e 139 606
e 140 387
e 140 781
e 140 456
e 140 941
e 140 262
e 141 800
e 141 301
e 141 588
e 143 277
e 143 466
e 143 359
e 143 720
e 143 341
e 145 972
e 145 275
e 145 655
e 145 376
e 147 955
e 147 901
e 148 958
e 148 831
e 148 650
e 149 945
e 149 392
e 149 539
e 149 455
e 150 994
e 150 290
e 150 248
e 150 479
e 151 951
e 151 427
e 151 506
e 151 548
e 154 200
e 154 785
e 154 596
e 154 643
e 154 210
e 154 179
e 156 318
e 156 395
e 156 565
e 156 838
e 157 609
e 157 383
e 157 588
e 157 936
e 157 484
e 157 595
e 158 354
e 158 998
e 158 259
e 158 892
e 159 733
e 159 241
e 159 349
e 159 466
e 159 789
e 160 373
e 160 472
e 160 994
e 161 908
e 161 715
e 161 185
e 162 378
e 162 190
e 162 821
e 162 900
e 165 747
e 165 630
e 165 453
e 166 436
e 166 486
e 166 326
e 166 481
e 166 494
e 168 682
e 168 361
e 168 447
e 168 524
e 169 433
e 169 456
e 169 172
e 169 189
e 169 581
e 169 561
e 170 596
e 170 539
e 170 779
e 170 832
e 171 389
e 171 582
e 172 923
e 172 279
e 176 811
e 176 561
e 176 343
e 176 951
e 176 813
e 177 667
e 177 352
e 177 240
e 177 978
e 177 405
e 177 838
e 179 692
e 179 946
e 179 317
e 179 755
e 179 935
e 181 536
e 181 856
e 181 308
e 181 943
e 184 618
e 184 589
e 184 328
e 184 320
e 184 240
e 184 272
e 185 629
e 185 804
e 185 500
e 185 517
e 186 859
e 186 354
e 186 359
e 186 908
e 186 475
e 186 586
e 186 744
e 186 305
e 187 205
e 187 459
e 187 917
e 187 835
e 188 886
e 188 647
e 188 401
e 189 558
e 189 950
e 189 975
e 189 952
e 189 443
e 189 501
e 189 438
e 190 910
e 190 388
e 191 877
e 191 523
e 191 731
e 195 843
e 195 660
e 195 752
e 195 992
e 196 499
e 196 589
e 196 866
e 196 261
e 196 527
e 197 283
e 197 534
e 197 281
e 197 544
e 200 463
e 200 699
e 200 462
e 200 273
e 200 915
e 200 953
e 201 867
e 201 978
e 201 396
e 202 400
e 202 725
e 202 390
e 202 826
e 204 623
e 204 772
e 204 354
e 205 438
e 205 547
e 205 297
e 205 625
e 206 725
e 206 938
e 207 412
e 207 241
e 207 460
e 207 999
e 207 752
e 208 377
e 208 611
e 208 337
e 210 678
e 211 900
e 211 507
e 211 400
e 211 228
e 211 219
e 214 786
e 214 903
e 214 582
e 215 343
e 215 883
e 215 350
e 215 218
e 216 981
e 216 666
e 216 764
e 216 834
e 216 860
e 216 813
e 216 259
e 218 908
e 218 971
e 218 742
e 218 559
e 219 874
e 219 530
e 219 691
e 221 582
e 221 863
e 221 633
e 222 727
e 222 352
e 222 775
e 222 493
e 222 975
e 222 730
e 223 928
e 223 526
e 223 879
e 224 353
e 224 417
e 224 886
e 224 971
e 224 325
e 224 301
e 224 938
e 225 894
e 225 448
e 225 403
e 225 234
e 225 419
e 225 640
e 225 863
e 225 661
e 226 623
e 226 564
e 226 613
e 228 565
e 228 241
e 228 675
e 229 863
e 229 718
e 230 813
e 230 631
e 230 866
e 230 386
e 231 821
e 231 976
e 231 655
e 232 352
e 232 233
e 232 739
e 233 691
e 233 283
e 234 496
e 234 718
e 235 491
e 235 715
e 235 782
e 236 933
e 236 889
e 236 502
e 236 717
e 237 975
e 237 672
e 237 375
e 238 609
e 238 632
e 238 516
e 238 886
e 239 856
e 239 299
e 240 292
e 240 345
e 241 398
e 241 492
e 241 710
e 241 292
e 241 564
e 242 725
e 242 658
e 242 937
e 242 303
e 242 584
e 242 277
e 244 463
e 244 992
e 244 827
e 245 779
e 245 454
e 245 969
e 246 275
e 246 704
e 246 267
e 246 764
e 246 856
e 246 584
e 246 378
e 246 834
e 247 377
e 247 490
e 247 767
e 247 468
e 247 455
e 247 887
e 248 940
e 248 794
e 248 601
e 250 408
e 250 614
e 250 398
e 250 803
e 250 595
e 250 281
e 250 678
e 251 341
e 251 894
e 251 972
e 251 386
e 251 862
e 253 682
e 253 759
e 253 542
e 253 710
e 253 413
e 258 735
e 258 604
e 258 289
e 258 884
e 258 487
e 258 768
e 258 845
e 259 355
e 259 294
e 261 763
e 261 299
e 262 863
e 262 654
e 262 438
e 265 756
e 265 658
e 265 523
e 267 322
e 270 437
e 270 562
e 270 632
e 270 595
e 270 821
e 270 692
e 270 900
e 270 486
e 271 295
e 271 860
e 271 960
e 272 554
e 272 889
e 273 652
e 273 445
e 274 866
e 274 940
e 275 864
e 275 483
e 277 918
e 277 281
e 277 948
e 277 476
e 279 606
e 279 978
e 279 901
e 281 522
e 281 402
e 281 915
e 281 717
e 283 663
e 283 389
e 283 295
e 283 353
e 283 417
e 283 387
e 284 571
e 284 629
e 284 658
e 284 872
e 284 698
e 284 549
e 285 412
e 285 834
e 285 539
e 286 946
e 286 523
e 286 701
e 287 896
e 287 350
e 287 711
e 287 363
e 287 757
e 287 627
e 288 386
e 288 990
e 289 726
e 289 776
e 289 984
e 289 982
e 290 309
e 290 378
e 292 473
e 292 808
e 292 703
e 292 783
e 293 638
e 293 546
e 293 887
e 293 589
e 294 870
e 294 303
e 294 699
e 295 942
e 297 694
e 297 454
e 299 840
e 299 772
e 299 775
e 299 973
e 299 711
e 299 728
e 299 335
e 300 636
e 300 385
e 300 989
e 301 972
e 301 678
e 301 320
e 301 958
e 303 355
e 303 528
e 303 889
e 303 746
e 305 971
e 305 798
e 307 756
e 307 349
e 307 971
e 307 347
e 308 702
e 309 905
e 309 944
e 311 905
e 311 802
e 311 605
e 313 663
e 313 851
e 313 872
e 315 862
e 315 681
e 315 637
e 316 851
e 316 800
e 317 618
e 317 722
e 317 859
e 317 467
e 317 874
e 317 728
e 318 549
e 318 392
e 318 514
e 320 715
e 320 349
e 321 853
e 321 745
e 322 881
e 322 547
e 322 490
e 323 527
e 323 377
e 323 730
e 325 948
e 325 953
e 325 369
e 325 344
e 326 633
e 326 417
e 326 448
e 326 451
e 327 534
e 327 419
e 327 472
e 327 485
e 328 791
e 328 635
e 328 776
e 329 683
e 329 933
e 329 642
e 329 862
e 331 650
e 331 973
e 331 640
e 332 459
e 332 631
e 332 812
e 333 787
e 333 500
e 333 766
e 333 432
e 333 775
e 335 541
e 335 853
e 335 754
e 335 758
e 336 794
e 336 798
e 336 677
e 336 787
e 336 354
e 337 817
e 337 547
e 338 604
e 338 987
e 338 487
e 338 561
e 338 729
e 339 962
e 339 455
e 339 453
e 339 597
e 339 918
e 339 629
e 340 782
e 340 988
e 341 765
e 341 460
e 341 627
e 343 427
e 343 422
e 344 438
e 344 726
e 344 765
e 345 450
e 345 495
e 345 490
e 345 535
e 346 755
e 346 901
e 346 905
e 347 885
e 347 384
e 347 597
e 349 796
e 349 585
e 350 539
e 352 682
e 352 365
e 352 507
e 352 743
e 352 818
e 352 757
e 353 704
e 353 900
e 353 887
e 354 394
e 354 822
e 355 530
e 356 497
e 356 785
e 356 549
e 357 474
e 357 536
e 357 756
e 357 861
e 359 965
e 359 782
e 361 964
e 361 985
e 361 369
e 363 506
e 363 986
e 363 658
e 363 477
e 363 853
e 363 896
e 364 977
e 364 741
e 364 450
e 364 699
e 364 718
e 365 765
e 365 687
e 365 964
e 365 579
e 366 574
e 368 786
e 368 865
e 368 789
e 368 821
e 368 612
e 368 433
e 368 712
e 368 387
e 368 644
e 368 894
e 369 533
e 369 877
e 369 630
e 369 720
e 369 888
e 369 604
e 372 832
e 372 636
e 372 912
e 373 462
e 373 375
e 373 832
e 373 685
e 373 851
e 375 559
e 375 486
e 376 731
e 376 534
e 376 474
e 376 873
e 376 495
e 376 728
e 377 834
e 377 835
e 377 394
e 378 461
e 378 535
e 378 994
e 378 590
e 381 682
e 381 806
e 381 985
e 381 880
e 381 982
e 383 960
e 383 712
e 383 475
e 383 585
e 383 669
e 384 729
e 384 910
e 384 663
e 384 479
e 384 492
e 385 428
e 385 989
e 386 513
e 386 515
e 386 981
e 387 392
e 387 771
e 387 817
e 387 544
e 387 624
e 387 639
e 388 758
e 389 940
e 389 661
e 389 813
e 390 867
e 390 585
e 392 935
e 392 857
e 392 461
e 392 486
e 392 751
e 393 706
e 393 485
e 393 811
e 394 987
e 394 921
e 394 426
e 395 483
e 395 621
e 395 511
e 396 906
e 398 524
e 398 894
e 398 839
e 399 464
e 399 808
e 400 541
e 400 809
e 400 848
e 400 405
e 400 496
e 400 998
e 400 937
e 400 709
e 401 820
e 401 790
e 401 915
e 401 858
e 402 918
e 402 908
e 402 738
e 403 428
e 403 599
e 404 901
e 404 674
e 404 929
e 404 498
e 405 845
e 405 592
e 405 775
e 406 641
e 406 525
e 406 619
e 406 463
e 407 592
e 407 678
e 408 461
e 408 884
e 408 988
e 410 436
e 410 865
e 410 433
e 411 427
e 411 941
e 411 510
e 411 499
e 411 652
e 412 417
e 412 477
e 412 639
e 413 812
e 414 455
e 414 618
e 414 597
e 414 614
e 417 643
e 417 818
e 419 722
e 422 581
e 422 435
e 422 592
e 422 964
e 423 584
e 423 460
e 423 728
e 424 567
e 424 942
e 424 642
e 424 862
e 426 964
e 426 897
e 427 524
e 428 525
e 428 457
e 428 939
e 428 796
e 428 973
e 428 598
e 432 867
e 432 494
e 432 660
e 435 721
e 435 791
e 435 630
e 435 899
e 436 728
e 437 569
e 437 886
e 438 873
e 438 633
e 440 928
e 440 812
e 441 741
e 441 654
e 441 549
e 441 520
e 441 927
e 443 494
e 443 547
e 443 556
e 445 644
e 445 725
e 445 457
e 445 815
e 445 803
e 447 806
e 447 624
e 447 675
e 447 853
e 448 915
e 448 702
e 448 987
e 449 975
e 449 561
e 450 623
e 450 836
e 451 824
e 451 884
e 453 608
e 454 790
e 455 582
e 455 510
e 456 549
e 456 598
e 457 598
e 457 590
e 457 509
e 457 475
e 458 579
e 458 562
e 459 460
e 459 851
e 460 734
e 461 650
e 461 842
e 461 501
e 462 533
e 462 863
e 463 936
e 464 597
e 466 962
e 467 809
e 467 546
e 467 735
e 467 741
e 468 611
e 468 541
e 468 839
e 468 874
e 470 960
e 472 912
e 472 612
e 473 581
e 473 475
e 474 487
e 475 775
e 476 905
e 476 566
e 478 725
e 478 592
e 478 720
e 479 932
e 481 844
e 481 800
e 483 589
e 483 592
e 483 811
e 484 666
e 484 630
e 484 957
e 484 542
e 485 627
e 485 712
e 486 961
e 487 907
e 487 574
e 487 771
e 488 598
e 488 607
e 488 683
e 490 980
e 490 955
e 491 678
e 491 524
e 492 526
e 493 702
e 494 889
e 494 953
e 494 514
e 495 746
e 495 541
e 495 856
e 496 652
e 496 935
e 497 696
e 498 569
e 498 726
e 499 711
e 499 734
e 499 849
e 499 984
e 499 880
e 500 905
e 500 566
e 500 596
e 501 710
e 501 938
e 502 995
e 502 556
e 502 680
e 502 858
e 505 940
e 505 791
e 505 890
e 505 901
e 505 715
e 507 625
e 509 548
e 509 951
e 509 750
e 509 791
e 509 946
e 509 827
e 510 631
e 510 597
e 511 672
e 511 785
e 511 847
e 513 798
e 513 990
e 513 944
e 514 720
e 515 727
e 515 831
e 516 982
e 516 699
e 516 578
e 516 771
e 517 579
e 517 781
e 520 843
e 520 687
e 520 871
e 522 758
e 522 607
e 522 885
e 523 606
e 523 679
e 525 685
e 525 641
e 526 750
e 526 964
e 526 939
e 526 923
e 526 958
e 526 726
e 526 975
e 527 681
e 527 837
e 528 794
e 528 687
e 528 859
e 530 656
e 530 981
e 532 802
e 533 988
e 534 870
e 534 726
e 534 901
e 535 927
e 536 933
e 538 775
e 538 730
e 539 633
e 541 835
e 542 585
e 542 897
e 543 805
e 543 870
e 543 554
e 543 851
e 544 983
e 544 685
e 546 791
e 546 925
e 546 771
e 547 891
e 547 639
e 548 859
e 548 794
e 548 903
e 548 984
e 548 901
e 548 612
e 549 650
e 549 790
e 551 733
e 551 601
e 551 804
e 556 703
e 557 906
e 557 656
e 557 903
e 558 783
e 558 625
e 559 766
e 559 733
e 562 702
e 562 779
e 562 983
e 564 674
e 566 727
e 567 754
e 567 718
e 569 937
e 570 950
e 574 769
e 577 838
e 577 681
e 577 844
e 577 709
e 577 586
e 578 864
e 579 983
e 579 624
e 581 775
e 582 945
e 584 741
e 585 641
e 585 953
e 585 639
e 586 642
e 586 900
e 588 899
e 589 623
e 589 999
e 589 938
e 589 596
e 589 675
e 590 817
e 590 891
e 592 882
e 592 994
e 596 871
e 596 764
e 596 924
e 597 779
e 597 739
e 598 710
e 599 701
e 599 641
e 601 647
e 601 635
e 604 759
e 605 950
e 605 983
e 606 863
e 607 980
e 608 790
e 608 939
e 609 839
e 609 915
e 610 906
e 610 687
e 610 746
e 611 850
e 611 826
e 611 866
e 612 621
e 613 957
e 614 988
e 614 661
e 619 984
e 619 670
e 619 889
e 619 657
e 621 889
e 621 936
e 624 683
e 624 657
e 624 735
e 627 838
e 629 727
e 629 745
e 630 755
e 631 757
e 631 638
e 631 811
e 631 881
e 632 988
e 634 738
e 634 962
e 635 818
e 636 776
e 637 711
e 637 885
e 637 980
e 638 712
e 638 694
e 639 933
e 639 957
e 640 885
e 642 853
e 642 927
e 643 730
e 643 905
e 644 946
e 644 883
e 644 752
e 644 889
e 647 686
e 648 903
e 648 983
e 650 831
e 652 905
e 652 776
e 654 924
e 656 759
e 660 769
e 660 935
e 661 922
e 661 900
e 663 856
e 666 811
e 666 693
e 667 983
e 667 940
e 667 786
e 667 718
e 669 743
e 669 989
e 669 677
e 670 731
e 670 691
e 672 850
e 672 852
e 672 775
e 674 978
e 677 951
e 679 711
e 679 742
e 680 805
e 680 813
e 680 852
e 680 837
e 681 990
e 681 848
e 681 758
e 681 789
e 682 908
e 682 992
e 683 752
e 683 971
e 687 929
e 687 858
e 691 723
e 691 929
e 691 982
e 692 995
e 692 872
e 692 818
e 693 826
e 693 726
e 693 873
e 694 995
e 694 955
e 694 723
e 696 750
e 696 888
e 698 989
e 699 848
e 699 714
e 699 779
e 701 927
e 702 809
e 702 861
e 703 847
e 704 731
e 704 861
e 704 882
e 706 909
e 706 852
e 706 848
e 709 714
e 709 941
e 710 783
e 710 880
e 712 743
e 712 955
e 714 945
e 714 730
e 715 718
e 715 735
e 715 802
e 717 885
e 717 733
e 718 820
e 718 879
e 721 972
e 721 866
e 723 977
e 725 945
e 726 948
e 729 754
e 731 909
e 731 986
e 731 948
e 733 835
e 734 806
e 734 769
e 735 907
e 738 945
e 739 867
e 741 936
e 744 775
e 744 987
e 744 960
e 746 782
e 746 765
e 746 917
e 746 941
e 746 764
e 747 906
e 747 965
e 747 844
e 748 900
e 750 805
e 750 824
e 751 980
e 751 815
e 752 889
e 752 809
e 752 987
e 754 764
e 755 961
e 756 885
e 758 945
e 760 893
e 760 867
e 763 886
e 763 783
e 765 853
e 765 845
e 766 890
e 766 815
e 767 839
e 768 922
e 768 986
e 769 978
e 771 977
e 771 889
e 773 910
e 773 940
e 773 812
e 775 780
e 775 994
e 775 999
e 776 831
e 780 901
e 781 994
e 781 934
e 782 874
e 783 901
e 785 822
e 786 865
e 789 860
e 791 809
e 791 885
e 794 867
e 798 927
e 803 983
e 803 809
e 803 917
e 804 836
e 808 971
e 811 853
e 812 855
e 812 871
e 817 838
e 820 983
e 820 831
e 821 943
e 822 998
e 822 942
e 822 923
e 824 865
e 824 894
e 824 890
e 824 942
e 827 969
e 827 849
e 834 892
e 834 943
e 840 965
e 842 937
e 847 932
e 848 872
e 849 883
e 849 885
e 850 933
e 852 932
e 853 870
e 855 934
e 857 950
e 858 929
e 858 983
e 860 934
e 861 946
e 863 910
e 864 972
e 866 893
e 866 877
e 873 882
e 877 969
e 877 888
e 877 962
e 880 910
e 882 903
e 885 960
e 887 957
e 889 897
e 891 985
e 891 909
e 892 936
e 893 960
e 894 921
e 896 925
e 899 957
e 901 999
e 902 977
e 903 948
e 905 945
e 906 907
e 912 972
e 912 925
e 915 962
e 933 971
e 934 976
e 939 994
e 944 952
e 961 971
e 976 977
